47
80 34 
64 79 
66 37 
90 48 
73 35 
45 24 
84 38 
40 41 
33 91 
45 42 
84 64 
32 46 
46 62 
25 67 
97 35 
29 64 
70 26 
24 100 
29 48 
37 37 
59 81 
75 79 
38 29 
80 28 
67 30 
27 22 
67 69 
80 31 
38 62 
50 76 
21 68 
66 28 
90 90 64 
67 84 42 
94 88 37 
60 79 76 
97 20 34 
100 32 85 
29 65 32 36 
51 69 64 61 
81 59 61 47 
36 91 98 31 
92 23 66 53 
21 74 92 68 46 
48 23 57 50 80 
41 51 44 96 75 83 
26 53 
